============================[ Problem Statistics ]=============================|                                                                             ||  Number of variables:         80392                                         ||  Number of clauses:          276022                                         ||  Parse time:                   0.50 s                                       ||                                                                             |============================[ Search Statistics ]==============================| Conflicts |          ORIGINAL         |          LEARNT          | Progress ||           |    Vars  Clauses Literals |    Limit  Clauses Lit/Cl |          |===============================================================================|       100 |   31760   187122   456773 |    68611      100     16 | 60.494 % ||       250 |   31760   187122   456773 |    75472      250     14 | 60.494 % ||       475 |   31760   187122   456773 |    83019      475     13 | 60.494 % ||       812 |   31209   183070   447191 |    91321      647     11 | 61.179 % |===============================================================================restarts              : 7conflicts             : 1200           (444 /sec)decisions             : 2168           (0.00 % random) (801 /sec)propagations          : 5156008        (1906103 /sec)conflict literals     : 13245          (34.97 % deleted)CPU time              : 2.705 sUNSATISFIABLE